decision_x1=[0,2];
decision_x2=[0,2];
decision_x3=[0,2];
decision_x4=[0,2];
decision_x5=[0,2];
decision_x6=[0,2];
decision_x7=[0,2];
decision_x8=[0,2];
decision_x9=[0,2];
decision_x10=[0,2];
decision_x11=[0,2];
decision_x12=[0,2];
decision_x13=[0,2];
decision_x14=[0,2];
decision_x15=[0,2];
random_y1=[0,2];
random_y2=[0,2];
random_y3=[0,2];
constraint_x2_x1=[
0,1,5.7|
0,2,0.87|
1,0,8.9|
1,2,4.1|
2,0,2.4|
2,1,0.59|
];
constraint_x3_x1=[
0,1,4.3|
0,2,4.9|
1,0,3|
1,2,1.7|
2,0,0.71|
2,1,2.9|
];
constraint_x3_x2=[
0,1,0.18|
0,2,4.1|
1,0,7.5|
1,2,4.8|
2,0,0.26|
2,1,4.6|
];
constraint_x4_x1=[
0,1,9.3|
0,2,2.3|
1,0,7.8|
1,2,6.5|
2,0,8.4|
2,1,5.5|
];
constraint_x5_x4=[
0,1,4.4|
0,2,2.8|
1,0,6.6|
1,2,7.9|
2,0,7.4|
2,1,8.3|
];
constraint_x6_x1=[
0,1,2.4|
0,2,8.2|
1,0,3|
1,2,3.5|
2,0,5.2|
2,1,4.2|
];
constraint_x7_x3=[
0,1,2.7|
0,2,2.1|
1,0,6.7|
1,2,7.9|
2,0,8.4|
2,1,7.2|
];
constraint_x7_x4=[
0,1,0.18|
0,2,8.3|
1,0,1.5|
1,2,8.8|
2,0,1.9|
2,1,5.6|
];
constraint_x7_x6=[
0,1,0.92|
0,2,8.4|
1,0,4.2|
1,2,3.4|
2,0,5.9|
2,1,6.1|
];
constraint_x8_x1=[
0,1,5.9|
0,2,7.9|
1,0,9.2|
1,2,7.2|
2,0,8.8|
2,1,9.1|
];
constraint_x8_x2=[
0,1,4.3|
0,2,9.8|
1,0,4.3|
1,2,4.2|
2,0,3.5|
2,1,3.9|
];
constraint_x8_x3=[
0,1,3.6|
0,2,2.6|
1,0,5.6|
1,2,9.7|
2,0,4.1|
2,1,0.59|
];
constraint_x8_x5=[
0,1,1.4|
0,2,7.9|
1,0,1.6|
1,2,0.37|
2,0,2.5|
2,1,1.2|
];
constraint_x8_x7=[
0,1,8.9|
0,2,4.9|
1,0,4.2|
1,2,6.1|
2,0,3.1|
2,1,6.4|
];
constraint_x9_x4=[
0,1,8.8|
0,2,6.5|
1,0,0.35|
1,2,9.6|
2,0,1.3|
2,1,0.24|
];
constraint_x9_x6=[
0,1,5.8|
0,2,9.6|
1,0,8.7|
1,2,4|
2,0,4.8|
2,1,2.2|
];
constraint_x9_x8=[
0,1,5.8|
0,2,2.2|
1,0,7|
1,2,6.3|
2,0,3.5|
2,1,3.5|
];
constraint_x10_x1=[
0,1,8.2|
0,2,3.1|
1,0,7.6|
1,2,7|
2,0,7.6|
2,1,5.8|
];
constraint_x10_x2=[
0,1,8.9|
0,2,3.8|
1,0,2.2|
1,2,0.067|
2,0,9.8|
2,1,7.7|
];
constraint_x10_x4=[
0,1,3.2|
0,2,1.3|
1,0,6.9|
1,2,8.6|
2,0,5.5|
2,1,9.7|
];
constraint_x10_x5=[
0,1,9.1|
0,2,5.3|
1,0,4.1|
1,2,3.6|
2,0,3.5|
2,1,6.8|
];
constraint_x10_x9=[
0,1,2.4|
0,2,1.9|
1,0,5.7|
1,2,7.2|
2,0,6.2|
2,1,4.2|
];
constraint_x11_x1=[
0,1,1.3|
0,2,9.2|
1,0,1.6|
1,2,8.5|
2,0,2.7|
2,1,6.2|
];
constraint_x11_x3=[
0,1,2.2|
0,2,7.8|
1,0,6.8|
1,2,0.89|
2,0,4.1|
2,1,0.29|
];
constraint_x11_x5=[
0,1,4.7|
0,2,3.3|
1,0,0.077|
1,2,3.7|
2,0,1.8|
2,1,3.2|
];
constraint_x11_x7=[
0,1,8.7|
0,2,7|
1,0,1.5|
1,2,8.4|
2,0,4|
2,1,0.58|
];
constraint_x12_x1=[
0,1,4.8|
0,2,0.13|
1,0,0.13|
1,2,9.5|
2,0,6.6|
2,1,2.6|
];
constraint_x12_x2=[
0,1,6.9|
0,2,7.4|
1,0,0.01|
1,2,7.1|
2,0,6|
2,1,7.8|
];
constraint_x12_x6=[
0,1,2.8|
0,2,4.2|
1,0,4.2|
1,2,0.34|
2,0,5.7|
2,1,8.9|
];
constraint_x12_x8=[
0,1,1.5|
0,2,2.4|
1,0,3.2|
1,2,7.2|
2,0,4.5|
2,1,4.3|
];
constraint_x12_x9=[
0,1,8.2|
0,2,9.7|
1,0,0.2|
1,2,3.4|
2,0,9.5|
2,1,6.5|
];
constraint_x12_x10=[
0,1,1.7|
0,2,2.8|
1,0,0.56|
1,2,7.8|
2,0,7.8|
2,1,6.2|
];
constraint_x12_x11=[
0,1,6.9|
0,2,7.6|
1,0,1|
1,2,6.9|
2,0,4.5|
2,1,8.3|
];
constraint_x13_x1=[
0,1,6.4|
0,2,4.3|
1,0,0.00073|
1,2,4.6|
2,0,1.1|
2,1,6.2|
];
constraint_x13_x2=[
0,1,3.4|
0,2,7.5|
1,0,7.2|
1,2,5.5|
2,0,7.7|
2,1,7|
];
constraint_x13_x6=[
0,1,7.5|
0,2,1.9|
1,0,8.7|
1,2,8.7|
2,0,9.6|
2,1,6|
];
constraint_x13_x7=[
0,1,1.2|
0,2,0.32|
1,0,5.4|
1,2,10|
2,0,1.7|
2,1,2.2|
];
constraint_x13_x8=[
0,1,3|
0,2,6.3|
1,0,2.5|
1,2,1.6|
2,0,1.2|
2,1,6.3|
];
constraint_x13_x11=[
0,1,6.4|
0,2,3.6|
1,0,8.4|
1,2,7.2|
2,0,7.4|
2,1,3.2|
];
constraint_x13_x12=[
0,1,2.1|
0,2,3.7|
1,0,5.7|
1,2,7.2|
2,0,7.5|
2,1,2.6|
];
constraint_x14_x1=[
0,1,8.1|
0,2,6.8|
1,0,0.5|
1,2,3.3|
2,0,9.5|
2,1,4.8|
];
constraint_x14_x2=[
0,1,0.84|
0,2,8.9|
1,0,1.6|
1,2,9.2|
2,0,0.23|
2,1,3.7|
];
constraint_x14_x3=[
0,1,7.7|
0,2,9.5|
1,0,4.5|
1,2,2.7|
2,0,9|
2,1,6.1|
];
constraint_x14_x5=[
0,1,6.4|
0,2,8|
1,0,8.9|
1,2,4|
2,0,5.5|
2,1,3.1|
];
constraint_x14_x8=[
0,1,8.2|
0,2,1.5|
1,0,3.8|
1,2,3.4|
2,0,0.18|
2,1,1.5|
];
constraint_x14_x9=[
0,1,3.5|
0,2,8.3|
1,0,8.9|
1,2,1.7|
2,0,0.38|
2,1,5.5|
];
constraint_x14_x10=[
0,1,7|
0,2,3.7|
1,0,5.5|
1,2,1.8|
2,0,5.7|
2,1,3.8|
];
constraint_x14_x11=[
0,1,7.5|
0,2,0.6|
1,0,4.3|
1,2,8.4|
2,0,0.073|
2,1,3.3|
];
constraint_x14_x12=[
0,1,2|
0,2,0.51|
1,0,6.2|
1,2,1.8|
2,0,5.1|
2,1,3.5|
];
constraint_x15_x6=[
0,1,0.38|
0,2,6.8|
1,0,0.71|
1,2,6.5|
2,0,1.5|
2,1,3.9|
];
constraint_x15_x8=[
0,1,9.9|
0,2,3.6|
1,0,5.3|
1,2,3.5|
2,0,6.8|
2,1,8.9|
];
constraint_x15_x10=[
0,1,8.7|
0,2,1.8|
1,0,7.8|
1,2,9.6|
2,0,0.63|
2,1,3.9|
];
constraint_x15_x11=[
0,1,3.9|
0,2,2.5|
1,0,6.4|
1,2,2.7|
2,0,8.2|
2,1,9.3|
];
constraint_x1_y1=[
0,0,5.7|
0,1,0.69|
0,2,8.9|
1,0,6.4|
1,1,7.9|
1,2,3.2|
2,0,3.9|
2,1,5.7|
2,2,6.9|
];
constraint_x2_y2=[
0,0,1.3|
0,1,8.8|
0,2,7.6|
1,0,2.5|
1,1,5.7|
1,2,5.8|
2,0,7.5|
2,1,1.6|
2,2,6.2|
];
constraint_x3_y3=[
0,0,3|
0,1,7.3|
0,2,1.6|
1,0,6.1|
1,1,3.4|
1,2,5.4|
2,0,6.9|
2,1,8.8|
2,2,3.9|
];
initial_distribution_y1=[0.31,0.4,0.29];
initial_distribution_y2=[0.46,0.14,0.39];
initial_distribution_y3=[0.74,0.095,0.17];
transition_y1=[
0.43,0.47,0.096|
0.22,0.51,0.27|
0.37,0.28,0.35|
];
transition_y2=[
0.31,0.3,0.39|
0.12,0.38,0.5|
0.55,0.34,0.11|
];
transition_y3=[
0.37,0.46,0.17|
0.28,0.21,0.51|
0.1,0.54,0.36|
];
